(set-logic QF_S)
(declare-fun var0 () String)
(declare-fun var1 () String)
(declare-fun var2 () String)
(declare-fun var3 () String)
(declare-fun var4 () Int)
(declare-fun var5 () Int)
(declare-fun var6 () Int)
(declare-fun var7 () Int)
(assert (>= (str.len var0) (str.len (str.replace var1 "<ZnP/v\\" var2))))
(assert (str.suffixof (str.substr var3 var4 11) (str.substr var3 var5 var6)))
(assert (>= (str.to.int var3) (str.indexof var0 var1 var7)))
(assert (str.in.re var3 re.allchar))
(check-sat)